(declare-fun C1 () Int)
(declare-fun C2 () Int)
(define-const $7 Int (- C2 C1))
(define-const $9 Bool (>= $7 10))
(assume $9)
(declare-fun T () Int)
(define-const $11 Int (- T C2))
(define-const $13 Bool (> $11 0))
(assume $13)
(declare-fun F () Int)
(define-const $15 Int (- F T))
(define-const $16 Bool (> $15 0))
(assume $16)
(define-const $18 Bool (>= $15 5))
(assume $18)
(define-const $19 Bool (>= $11 10))
(assume $19)
(define-const $20 Bool (<= $11 10))
(assume $20)
(declare-fun A () Int)
(define-const $22 Int (- C1 A))
(define-const $23 Bool (> $22 0))
(assume $23)
(declare-fun B () Int)
(define-const $25 Int (- B C2))
(define-const $26 Bool (>= $25 0))
(assume $26)
(declare-fun C () Int)
(define-const $28 Int (- C B))
(define-const $29 Bool (> $28 0))
(assume $29)
(define-const $30 Int (- T C))
(define-const $31 Bool (>= $30 0))
(assume $31)
(declare-fun D () Int)
(define-const $33 Int (- D F))
(define-const $34 Bool (>= $33 0))
(assume $34)
(declare-fun E () Int)
(define-const $36 Int (- E F))
(define-const $37 Bool (>= $36 0))
(assume $37)
(define-const $38 Int (- T A))
(define-const $40 Bool (>= $38 1))
(assume $40)
(define-const $41 Int (- T B))
(define-const $42 Bool (>= $41 1))
(assume $42)
(define-const $43 Bool (>= $30 1))
(assume $43)
(define-const $44 Int (- D T))
(define-const $45 Bool (>= $44 1))
(assume $45)
(define-const $46 Int (- E T))
(define-const $47 Bool (>= $46 1))
(assume $47)
(define-const $48 Int (- F A))
(define-const $49 Bool (>= $48 1))
(assume $49)
(define-const $50 Int (- F B))
(define-const $51 Bool (>= $50 1))
(assume $51)
(define-const $52 Int (- F C))
(define-const $53 Bool (>= $52 1))
(assume $53)
(define-const $54 Bool (>= $33 1))
(assume $54)
(define-const $55 Bool (>= $36 1))
(assume $55)
(declare-fun A_cross () Int)
(define-const $57 Int (- A_cross $22))
(define-const $58 Bool (>= $57 0))
(assume $58)
(define-const $59 Int (- $22 A_cross))
(define-const $60 Bool (>= $59 0))
(assume $60)
(declare-fun B_cross () Int)
(define-const $62 Int (- B_cross $25))
(define-const $63 Bool (>= $62 0))
(assume $63)
(define-const $64 Int (- $25 B_cross))
(define-const $65 Bool (>= $64 0))
(assume $65)
(define-const $66 Bool (> A_cross 0))
(assume $66)
(define-const $67 Bool (> B_cross 0))
(assume $67)
(define-const $68 Bool (<= A_cross 5))
(assume $68)
(define-const $69 Bool (<= B_cross 5))
(assume $69)
(declare-fun A_B () Int)
(define-const $71 Int (- B A))
(define-const $72 Int (- A_B $71))
(define-const $73 Bool (>= $72 0))
(assume $73)
(define-const $74 Int (- $71 A_B))
(define-const $75 Bool (>= $74 0))
(assume $75)
(declare-fun B_C () Int)
(define-const $77 Int (- B_C $28))
(define-const $78 Bool (>= $77 0))
(assume $78)
(define-const $79 Int (- $28 B_C))
(define-const $80 Bool (>= $79 0))
(assume $80)
(declare-fun C_T () Int)
(define-const $82 Int (- C_T $30))
(define-const $83 Bool (>= $82 0))
(assume $83)
(define-const $84 Int (- $30 C_T))
(define-const $85 Bool (>= $84 0))
(assume $85)
(define-const $87 Bool (>= A_B 3))
(assume $87)
(define-const $88 Bool (>= B_C 3))
(assume $88)
(declare-fun C_D () Int)
(define-const $90 Int (- D C))
(define-const $91 Int (- C_D $90))
(define-const $92 Bool (>= $91 0))
(assume $92)
(define-const $93 Int (- $90 C_D))
(define-const $94 Bool (>= $93 0))
(assume $94)
(declare-fun C_E () Int)
(define-const $96 Int (- E C))
(define-const $97 Int (- C_E $96))
(define-const $98 Bool (>= $97 0))
(assume $98)
(define-const $99 Int (- $96 C_E))
(define-const $100 Bool (>= $99 0))
(assume $100)
(define-const $101 Bool (>= C_D 3))
(assume $101)
(define-const $102 Bool (>= C_E 3))
(assume $102)
(define-const $103 Int (- A_B B_C))
(define-const $104 Bool (>= $103 0))
(assume $104)
(define-const $107 Int (* 5 B_C))
(define-const $106 Int (* 6 C_D))
(define-const $108 Int (- $106 $107))
(define-const $109 Bool (>= $108 0))
(assume $109)
(define-const $112 Int (* 5 C_D))
(define-const $111 Int (* 4 C_E))
(define-const $113 Int (- $111 $112))
(define-const $114 Bool (>= $113 0))
(assume $114)
(define-const $117 Int (* 6 B_C))
(define-const $115 Int (* 5 C_E))
(define-const $116 Int (+ $112 $115))
(define-const $118 Int (- $116 $117))
(define-const $119 Bool (>= $118 0))
(assume $119)
(define-const $122 Int (* 2 A_B))
(define-const $120 Int (* 3 B_C))
(define-const $123 Int (- $120 $122))
(define-const $124 Bool (>= $123 0))
(assume $124)
(define-const $126 Int (* 7 B_C))
(define-const $127 Int (- $126 $112))
(define-const $128 Bool (>= $127 0))
(assume $128)
(define-const $129 Int (* 7 C_D))
(define-const $130 Int (- $129 $115))
(define-const $131 Bool (>= $130 0))
(assume $131)
(define-const $132 Int (* 2 C_E))
(define-const $133 Int (- $120 $132))
(define-const $134 Bool (>= $133 0))
(assume $134)
(define-const $136 Bool (<= B_C 8))
(assume $136)
(declare-fun lat_sep () Int)
(define-const $138 Bool (>= lat_sep 2))
(assume $138)
